# Solution for model r10_t18_m7_9
# Finished Task: 7 / 18
# Makespan: 520.0, Total Distance: 75.0, Total Time: 2.6602
# R O S F
0 0 -1 220.0 220.0
1 1 26 40.0 40.0
2 2 19 5.0 5.0
3 3 10 78.0 78.0
4 4 -1 492.0 492.0
5 5 -1 247.0 247.0
6 6 21 247.0 247.0
7 7 -1 215.0 215.0
8 8 -1 490.0 490.0
9 9 18 215.0 215.0
10 3 25 98.0 132.0
11 -1 -1 583.0 611.0
12 -1 -1 437.0 466.0
13 -1 -1 582.0 611.0
14 -1 -1 544.0 583.0
15 -1 -1 520.0 544.0
16 -1 -1 399.0 437.0
17 6 -1 399.0 423.0
18 9 -1 485.0 510.0
19 2 -1 499.0 520.0
20 -1 -1 575.0 611.0
21 6 17 371.0 399.0
22 -1 -1 483.0 520.0
23 -1 -1 466.0 499.0
24 -1 -1 499.0 537.0
25 3 -1 399.0 436.0
26 1 -1 49.0 85.0
27 -1 -1 537.0 575.0
